Maximize

342 x_0 + 208 x_1 + 310 x_2 + 341 x_3 + 52 x_4 + 179 x_5 + 323 x_6 + 360 x_7 + 420 x_8 + 126 x_9 + 449 x_10 + 80 x_11 + 146 x_12 + 146 x_13 + 122 x_14 + 423 x_15 + 63 x_16 + 454 x_17 + 397 x_18 + 203 x_19 + 437 x_20 + 54 x_21 + 482 x_22 + 274 x_23 + 435 x_24 + 343 x_25 + 471 x_26 + 30 x_27 + 238 x_28 + 447 x_29 + 81 x_30 + 122 x_31 + 237 x_32 + 56 x_33 + 421 x_34 + 360 x_35 + 176 x_36 + 307 x_37 + 194 x_38 + 121 x_39 + 52 x_40 + 303 x_41 + 471 x_42 + 185 x_43 + 444 x_44 + 107 x_45 + 485 x_46 + 116 x_47 + 90 x_48 + 189 x_49 + 162 x_50 + 414 x_51 + 437 x_52 + 230 x_53 + 154 x_54 + 499 x_55 + 367 x_56 + 372 x_57 + 109 x_58 + 266 x_59 + 412 x_60 + 368 x_61 + 204 x_62 + 422 x_63 + 335 x_64 + 239 x_65 + 12 x_66 + 249 x_67 + 395 x_68 + 353 x_69 + 56 x_70 + 231 x_71 + 252 x_72 + 355 x_73 + 254 x_74 + 243 x_75 + 210 x_76 + 239 x_77 + 472 x_78 + 218 x_79 + 96 x_80 + 266 x_81 + 246 x_82 + 416 x_83 + 111 x_84 + 371 x_85 + 26 x_86 + 365 x_87 + 174 x_88 + 393 x_89 + 278 x_90 + 94 x_91 + 245 x_92 + 440 x_93 + 310 x_94 + 200 x_95 + 389 x_96 + 61 x_97 + 379 x_98 + 152 x_99


Subject To

a0: 246 x_0 + 42 x_0 + 276 x_0 + 24 x_0 + 42 x_1 + 396 x_1 + 123 x_2 + 10 x_2 + 45 x_2 + 24 x_2 + 1 x_3 + 63 x_3 + 287 x_3 + 48 x_3 + 200 x_4 + 360 x_4 + 240 x_5 + 6 x_5 + 94 x_6 + 46 x_6 + 56 x_6 + 1 x_7 + 51 x_7 + 414 x_7 + 24 x_7 + 12 x_7 + 21 x_8 + 49 x_9 + 144 x_9 + 116 x_9 + 21 x_10 + 148 x_10 + 14 x_11 + 42 x_11 + 360 x_11 + 116 x_11 + 18 x_11 + 54 x_12 + 90 x_12 + 225 x_12 + 50 x_13 + 5 x_14 + 396 x_14 + 9 x_15 + 7 x_15 + 48 x_15 + 12 x_15 + 119 x_16 + 184 x_16 + 225 x_16 + 441 x_17 + 34 x_17 + 222 x_17 + 240 x_17 + 5 x_18 + 6 x_18 + 160 x_19 + 30 x_19 + 74 x_19 + 132 x_19 + 6 x_19 + 294 x_20 + 63 x_20 + 45 x_20 + 9 x_21 + 308 x_21 + 6 x_22 + 220 x_22 + 111 x_23 + 54 x_24 + 245 x_25 + 174 x_25 + 28 x_25 + 37 x_26 + 90 x_26 + 288 x_27 + 60 x_27 + 45 x_27 + 18 x_27 + 49 x_28 + 160 x_28 + 12 x_28 + 376 x_28 + 112 x_28 + 136 x_29 + 360 x_30 + 153 x_30 + 30 x_30 + 405 x_30 + 18 x_30 + 96 x_31 + 54 x_31 + 174 x_31 + 42 x_31 + 336 x_32 + 240 x_32 + 94 x_32 + 87 x_32 + 240 x_33 + 112 x_33 + 18 x_33 + 220 x_34 + 261 x_34 + 360 x_34 + 12 x_35 + 140 x_35 + 45 x_35 + 12 x_35 + 21 x_36 + 18 x_36 + 24 x_36 + 45 x_36 + 12 x_36 + 36 x_37 + 252 x_37 + 27 x_37 + 35 x_38 + 147 x_39 + 123 x_39 + 136 x_39 + 188 x_39 + 276 x_39 + 4 x_40 + 50 x_40 + 200 x_40 + 46 x_40 + 333 x_41 + 315 x_41 + 9 x_41 + 320 x_42 + 287 x_42 + 333 x_42 + 138 x_42 + 24 x_42 + 296 x_43 + 47 x_43 + 44 x_43 + 6 x_43 + 384 x_44 + 120 x_44 + 56 x_44 + 45 x_44 + 18 x_44 + 147 x_45 + 360 x_45 + 235 x_45 + 174 x_45 + 30 x_46 + 329 x_46 + 14 x_47 + 54 x_47 + 85 x_47 + 48 x_47 + 196 x_47 + 3 x_48 + 144 x_48 + 12 x_48 + 14 x_49 + 185 x_49 + 147 x_50 + 44 x_50 + 10 x_51 + 308 x_52 + 17 x_53 + 259 x_53 + 56 x_53 + 119 x_54 + 352 x_54 + 230 x_54 + 80 x_55 + 12 x_55 + 185 x_55 + 392 x_56 + 7 x_56 + 230 x_56 + 360 x_56 + 111 x_57 + 87 x_57 + 82 x_58 + 185 x_58 + 196 x_59 + 12 x_59 + 148 x_59 + 58 x_59 + 168 x_59 + 56 x_60 + 30 x_60 + 17 x_60 + 145 x_60 + 18 x_60 + 153 x_61 + 270 x_61 + 245 x_62 + 63 x_63 + 246 x_63 + 70 x_63 + 92 x_63 + 9 x_63 + 42 x_64 + 320 x_64 + 282 x_64 + 203 x_64 + 392 x_65 + 188 x_65 + 184 x_65 + 98 x_66 + 63 x_66 + 160 x_66 + 37 x_67 + 40 x_67 + 90 x_67 + 49 x_68 + 80 x_68 + 24 x_68 + 6 x_69 + 240 x_70 + 232 x_70 + 45 x_70 + 120 x_71 + 6 x_71 + 261 x_72 + 7 x_73 + 49 x_73 + 352 x_73 + 140 x_73 + 56 x_74 + 48 x_74 + 160 x_75 + 47 x_75 + 3 x_75 + 85 x_76 + 40 x_77 + 246 x_78 + 74 x_78 + 376 x_78 + 18 x_79 + 30 x_79 + 92 x_79 + 80 x_80 + 60 x_81 + 12 x_81 + 85 x_82 + 276 x_82 + 205 x_83 + 9 x_84 + 56 x_84 + 336 x_84 + 276 x_84 + 49 x_85 + 50 x_85 + 200 x_86 + 328 x_86 + 47 x_86 + 232 x_86 + 12 x_86 + 336 x_87 + 160 x_87 + 42 x_88 + 240 x_88 + 40 x_88 + 322 x_88 + 18 x_88 + 414 x_89 + 58 x_89 + 6 x_89 + 24 x_90 + 10 x_90 + 28 x_90 + 90 x_90 + 42 x_91 + 17 x_91 + 188 x_91 + 180 x_91 + 49 x_92 + 46 x_92 + 203 x_92 + 49 x_93 + 280 x_94 + 315 x_94 + 24 x_94 + 96 x_95 + 320 x_95 + 140 x_95 + 4 x_96 + 18 x_96 + 63 x_97 + 87 x_97 + 30 x_97 + 180 x_97 + 8 x_98 + 145 x_98 + 320 x_99 + 145 x_99 + 252 x_99 <= 25000
b0: 252 x_0 + 147 x_0 + 6 x_0 + 320 x_0 + 102 x_1 + 288 x_1 + 126 x_2 + 21 x_2 + 15 x_2 + 320 x_2 + 22 x_3 + 153 x_3 + 294 x_3 + 384 x_3 + 20 x_4 + 120 x_4 + 24 x_5 + 21 x_5 + 62 x_6 + 1 x_6 + 4 x_6 + 22 x_7 + 18 x_7 + 9 x_7 + 192 x_7 + 160 x_7 + 51 x_8 + 119 x_9 + 45 x_9 + 44 x_9 + 51 x_10 + 100 x_10 + 34 x_11 + 147 x_11 + 162 x_11 + 44 x_11 + 240 x_11 + 189 x_12 + 189 x_12 + 75 x_12 + 105 x_13 + 110 x_14 + 288 x_14 + 198 x_15 + 17 x_15 + 168 x_15 + 96 x_15 + 42 x_16 + 4 x_16 + 75 x_16 + 27 x_17 + 12 x_17 + 150 x_17 + 108 x_17 + 110 x_18 + 21 x_18 + 16 x_19 + 105 x_19 + 50 x_19 + 96 x_19 + 48 x_19 + 18 x_20 + 153 x_20 + 15 x_20 + 198 x_21 + 224 x_21 + 132 x_22 + 160 x_22 + 75 x_23 + 432 x_24 + 15 x_25 + 66 x_25 + 2 x_25 + 25 x_26 + 30 x_26 + 90 x_27 + 126 x_27 + 15 x_27 + 240 x_27 + 3 x_28 + 16 x_28 + 42 x_28 + 248 x_28 + 8 x_28 + 48 x_29 + 36 x_30 + 54 x_30 + 240 x_30 + 135 x_30 + 240 x_30 + 30 x_31 + 189 x_31 + 66 x_31 + 336 x_31 + 105 x_32 + 24 x_32 + 62 x_32 + 33 x_32 + 24 x_33 + 8 x_33 + 240 x_33 + 160 x_34 + 99 x_34 + 120 x_34 + 96 x_35 + 10 x_35 + 15 x_35 + 160 x_35 + 51 x_36 + 63 x_36 + 192 x_36 + 15 x_36 + 160 x_36 + 288 x_37 + 18 x_37 + 360 x_37 + 85 x_38 + 9 x_39 + 126 x_39 + 48 x_39 + 124 x_39 + 6 x_39 + 88 x_40 + 105 x_40 + 90 x_40 + 1 x_40 + 225 x_41 + 105 x_41 + 120 x_41 + 32 x_42 + 294 x_42 + 225 x_42 + 3 x_42 + 320 x_42 + 200 x_43 + 31 x_43 + 32 x_43 + 48 x_43 + 120 x_44 + 12 x_44 + 4 x_44 + 15 x_44 + 240 x_44 + 9 x_45 + 162 x_45 + 155 x_45 + 66 x_45 + 63 x_46 + 217 x_46 + 34 x_47 + 189 x_47 + 30 x_47 + 384 x_47 + 14 x_47 + 66 x_48 + 45 x_48 + 96 x_48 + 34 x_49 + 125 x_49 + 9 x_50 + 32 x_50 + 21 x_51 + 224 x_52 + 6 x_53 + 175 x_53 + 4 x_53 + 42 x_54 + 256 x_54 + 5 x_54 + 8 x_55 + 42 x_55 + 125 x_55 + 24 x_56 + 154 x_56 + 5 x_56 + 120 x_56 + 75 x_57 + 33 x_57 + 84 x_58 + 125 x_58 + 12 x_59 + 42 x_59 + 100 x_59 + 22 x_59 + 12 x_59 + 136 x_60 + 105 x_60 + 6 x_60 + 55 x_60 + 144 x_60 + 54 x_61 + 90 x_61 + 15 x_62 + 153 x_63 + 252 x_63 + 147 x_63 + 2 x_63 + 120 x_63 + 102 x_64 + 144 x_64 + 186 x_64 + 77 x_64 + 24 x_65 + 124 x_65 + 4 x_65 + 6 x_66 + 153 x_66 + 16 x_66 + 25 x_67 + 84 x_67 + 30 x_67 + 3 x_68 + 8 x_68 + 84 x_68 + 132 x_69 + 75 x_70 + 88 x_70 + 15 x_70 + 54 x_71 + 80 x_71 + 99 x_72 + 154 x_73 + 119 x_73 + 256 x_73 + 10 x_73 + 136 x_74 + 15 x_74 + 72 x_75 + 31 x_75 + 40 x_75 + 30 x_76 + 18 x_77 + 252 x_78 + 50 x_78 + 248 x_78 + 63 x_79 + 63 x_79 + 2 x_79 + 168 x_80 + 126 x_81 + 160 x_81 + 30 x_82 + 6 x_82 + 210 x_83 + 198 x_84 + 136 x_84 + 105 x_84 + 6 x_84 + 119 x_85 + 105 x_85 + 20 x_86 + 336 x_86 + 31 x_86 + 88 x_86 + 160 x_86 + 105 x_87 + 16 x_87 + 102 x_88 + 24 x_88 + 18 x_88 + 7 x_88 + 240 x_88 + 9 x_89 + 22 x_89 + 48 x_89 + 84 x_90 + 21 x_90 + 2 x_90 + 30 x_90 + 102 x_91 + 6 x_91 + 124 x_91 + 60 x_91 + 119 x_92 + 1 x_92 + 77 x_92 + 119 x_93 + 126 x_94 + 105 x_94 + 320 x_94 + 30 x_95 + 32 x_95 + 10 x_95 + 88 x_96 + 240 x_96 + 153 x_97 + 33 x_97 + 240 x_97 + 60 x_97 + 176 x_98 + 55 x_98 + 144 x_99 + 55 x_99 + 18 x_99 <= 25000



Bounds


x_0 <= 175
x_1 <= 325
x_2 <= 391
x_3 <= 149
x_4 <= 355
x_5 <= 122
x_6 <= 307
x_7 <= 165
x_8 <= 305
x_9 <= 356
x_10 <= 351
x_11 <= 471
x_12 <= 456
x_13 <= 380
x_14 <= 271
x_15 <= 364
x_16 <= 345
x_17 <= 256
x_18 <= 451
x_19 <= 345
x_20 <= 297
x_21 <= 102
x_22 <= 324
x_23 <= 143
x_24 <= 493
x_25 <= 292
x_26 <= 471
x_27 <= 118
x_28 <= 368
x_29 <= 170
x_30 <= 450
x_31 <= 449
x_32 <= 223
x_33 <= 395
x_34 <= 390
x_35 <= 137
x_36 <= 113
x_37 <= 485
x_38 <= 178
x_39 <= 197
x_40 <= 478
x_41 <= 462
x_42 <= 62
x_43 <= 119
x_44 <= 206
x_45 <= 137
x_46 <= 233
x_47 <= 455
x_48 <= 325
x_49 <= 91
x_50 <= 255
x_51 <= 185
x_52 <= 289
x_53 <= 148
x_54 <= 302
x_55 <= 336
x_56 <= 275
x_57 <= 311
x_58 <= 199
x_59 <= 431
x_60 <= 349
x_61 <= 246
x_62 <= 496
x_63 <= 353
x_64 <= 482
x_65 <= 234
x_66 <= 151
x_67 <= 309
x_68 <= 262
x_69 <= 364
x_70 <= 231
x_71 <= 160
x_72 <= 479
x_73 <= 428
x_74 <= 235
x_75 <= 352
x_76 <= 223
x_77 <= 471
x_78 <= 482
x_79 <= 449
x_80 <= 181
x_81 <= 404
x_82 <= 462
x_83 <= 268
x_84 <= 443
x_85 <= 444
x_86 <= 434
x_87 <= 149
x_88 <= 93
x_89 <= 323
x_90 <= 291
x_91 <= 362
x_92 <= 414
x_93 <= 481
x_94 <= 311
x_95 <= 148
x_96 <= 70
x_97 <= 119
x_98 <= 259
x_99 <= 158




General

 x_0 x_1 x_2 x_3 x_4 x_5 x_6 x_7 x_8 x_9 x_10 x_11 x_12 x_13 x_14 x_15 x_16 x_17 x_18 x_19 x_20 x_21 x_22 x_23 x_24 x_25 x_26 x_27 x_28 x_29 x_30 x_31 x_32 x_33 x_34 x_35 x_36 x_37 x_38 x_39 x_40 x_41 x_42 x_43 x_44 x_45 x_46 x_47 x_48 x_49 x_50 x_51 x_52 x_53 x_54 x_55 x_56 x_57 x_58 x_59 x_60 x_61 x_62 x_63 x_64 x_65 x_66 x_67 x_68 x_69 x_70 x_71 x_72 x_73 x_74 x_75 x_76 x_77 x_78 x_79 x_80 x_81 x_82 x_83 x_84 x_85 x_86 x_87 x_88 x_89 x_90 x_91 x_92 x_93 x_94 x_95 x_96 x_97 x_98 x_99



End
